projet_m2_wvcp/projet_m2_wvcp/original_wvcp_dzn/p17.clq.dzn
cliques=[{4,3,0,2,5,1},{4,3,0,2,5,1},{4,3,0,2,5,1},{4,3,0,2,5,1},{4,3,0,2,5,1},{4,3,0,2,5,1},{6,8,7,9,10},{6,8,7,9,10},{3,8,18,13,23},{6,8,7,9,10},{6,8,7,9,10},{11,14,13,15,12},{11,14,13,15,12},{3,8,18,13,23},{4,30,25,14,35},{20,36,5,10,15},{20,18,16,19,17},{20,18,16,19,17},{3,8,18,13,23},{20,18,16,19,17},{20,36,5,10,15},{6,0,26,31,21},{2,28,7,33,22,12,17},{3,8,18,13,23},{34,29,9,24,19},{4,30,25,14,35},{29,30,28,27,26},{29,30,28,27,26},{29,30,28,27,26},{29,30,28,27,26},{4,30,25,14,35},{34,36,32,35,33,31},{34,36,32,35,33,31},{34,36,32,35,33,31},{34,36,32,35,33,31},{4,30,25,14,35},{20,36,5,10,15}];
nr_cliques=37;
