projet_m2_wvcp/projet_m2_wvcp/original_wvcp_dzn/p17.dzn
name="p17";
nr_vertices=37;
nr_edges=161;
neighborhoods=[{1,2,3,4,5,6,21,26,31},{0,2,3,4,5,11,16,27,32},{0,1,3,4,5,7,12,17,22,28,33},{0,1,2,4,5,8,13,18,23},{0,1,2,3,5,14,25,30,35},{0,1,2,3,4,10,15,20,36},{0,7,8,9,10,21,26,31},{2,6,8,9,10,12,17,22,28,33},{3,6,7,9,10,13,18,23},{6,7,8,10,19,24,29,34},{5,6,7,8,9,15,20,36},{1,12,13,14,15,16,27,32},{2,7,11,13,14,15,17,22,28,33},{3,8,11,12,14,15,18,23},{4,11,12,13,15,25,30,35},{5,10,11,12,13,14,20,36},{1,11,17,18,19,20,27,32},{2,7,12,16,18,19,20,22,28,33},{3,8,13,16,17,19,20,23},{9,16,17,18,20,24,29,34},{5,10,15,16,17,18,19,36},{0,6,22,23,24,25,26,31},{2,7,12,17,21,23,24,25,28,33},{3,8,13,18,21,22,24,25},{9,19,21,22,23,25,29,34},{4,14,21,22,23,24,30,35},{0,6,21,27,28,29,30,31},{1,11,16,26,28,29,30,32},{2,7,12,17,22,26,27,29,30,33},{9,19,24,26,27,28,30,34},{4,14,25,26,27,28,29,35},{0,6,21,26,32,33,34,35,36},{1,11,16,27,31,33,34,35,36},{2,7,12,17,22,28,31,32,34,35,36},{9,19,24,29,31,32,33,35,36},{4,14,25,30,31,32,33,34,36},{5,10,15,20,31,32,33,34,35}];
weights=[576,49,546,860,956,88,768,434,745,95,73,767,50,405,455,56,345,5,423,58,908,51,78,258,78,539,63,324,545,657,546,58,323,80,700,96,657];
